159999
14,48,36,38,83,52,6,62,1,61,45,76,39,5,68,98,25,33,82,56,79,88,75,27,26,9,58,65,43,86,0,57,42,23,101,73,13,49,67,18,97,30,64,54,28,29,4,51,12,87,55,19,15,63,89,16,20,21,47,84,10,40,35,72,32,81,71,50,99,44,24,85,80,41,8,91,22,92,11,7,96,105,46,60,3,102,34,74,31,17,69,93,2,104,37,103,66,94,53,70,100,77,95,59,90,78,14